NAME          DCAP_2_3_3_300_SS212
ROWS
 N  OBJ
 L  CON1
 L  CON2
 L  CON3
 L  CON4
 L  CON5
 L  CON6
 L  CON7
 L  CON8
 L  CON9
 L  CON10
 L  CON11
 L  CON12
 E  CON13
 E  CON14
 E  CON15
 E  CON16
 E  CON17
 E  CON18
 E  CON19
 E  CON20
 E  CON21
COLUMNS
    x[1,1]    OBJ       6.180167      CON1      1.000000    
    x[1,1]    CON7      -1.000000     CON8      -1.000000   
    x[1,1]    CON9      -1.000000   
    x[1,2]    OBJ       6.563535      CON2      1.000000    
    x[1,2]    CON8      -1.000000     CON9      -1.000000   
    x[1,3]    OBJ       7.443064      CON3      1.000000    
    x[1,3]    CON9      -1.000000   
    x[2,1]    OBJ       6.732585      CON4      1.000000    
    x[2,1]    CON10     -1.000000     CON11     -1.000000   
    x[2,1]    CON12     -1.000000   
    x[2,2]    OBJ       5.039546      CON5      1.000000    
    x[2,2]    CON11     -1.000000     CON12     -1.000000   
    x[2,3]    OBJ       6.054841      CON6      1.000000    
    x[2,3]    CON12     -1.000000   
    MARKER    'MARKER'                'INTORG'
    u[1,1]    OBJ       48.076654     CON1      -1.000000   
    u[1,2]    OBJ       20.066487     CON2      -1.000000   
    u[1,3]    OBJ       32.230043     CON3      -1.000000   
    u[2,1]    OBJ       49.996186     CON4      -1.000000   
    u[2,2]    OBJ       49.466655     CON5      -1.000000   
    u[2,3]    OBJ       27.484319     CON6      -1.000000   
    y[1,1,1]  OBJ       9.514035      CON7      0.615470    
    y[1,1,1]  CON13     1.000000    
    y[1,1,2]  OBJ       5.415527      CON8      1.499032    
    y[1,1,2]  CON14     1.000000    
    y[1,1,3]  OBJ       7.524303      CON9      1.260096    
    y[1,1,3]  CON15     1.000000    
    y[1,2,1]  OBJ       7.177025      CON7      0.994743    
    y[1,2,1]  CON16     1.000000    
    y[1,2,2]  OBJ       8.738112      CON8      1.267924    
    y[1,2,2]  CON17     1.000000    
    y[1,2,3]  OBJ       8.460712      CON9      1.387498    
    y[1,2,3]  CON18     1.000000    
    y[1,3,1]  OBJ       8.674247      CON7      1.263607    
    y[1,3,1]  CON19     1.000000    
    y[1,3,2]  OBJ       5.573395      CON8      0.694286    
    y[1,3,2]  CON20     1.000000    
    y[1,3,3]  OBJ       6.434127      CON9      1.258911    
    y[1,3,3]  CON21     1.000000    
    y[2,1,1]  OBJ       7.023917      CON10     0.615470    
    y[2,1,1]  CON13     1.000000    
    y[2,1,2]  OBJ       8.022393      CON11     1.499032    
    y[2,1,2]  CON14     1.000000    
    y[2,1,3]  OBJ       5.205010      CON12     1.260096    
    y[2,1,3]  CON15     1.000000    
    y[2,2,1]  OBJ       9.419187      CON10     0.994743    
    y[2,2,1]  CON16     1.000000    
    y[2,2,2]  OBJ       7.510588      CON11     1.267924    
    y[2,2,2]  CON17     1.000000    
    y[2,2,3]  OBJ       8.669651      CON12     1.387498    
    y[2,2,3]  CON18     1.000000    
    y[2,3,1]  OBJ       6.225379      CON10     1.263607    
    y[2,3,1]  CON19     1.000000    
    y[2,3,2]  OBJ       6.297329      CON11     0.694286    
    y[2,3,2]  CON20     1.000000    
    y[2,3,3]  OBJ       5.008097      CON12     1.258911    
    y[2,3,3]  CON21     1.000000    
    z[1,1]    OBJ       864.064986    CON13     1.000000    
    z[1,2]    OBJ       751.650632    CON14     1.000000    
    z[1,3]    OBJ       836.067762    CON15     1.000000    
    z[2,1]    OBJ       705.059328    CON16     1.000000    
    z[2,2]    OBJ       656.045335    CON17     1.000000    
    z[2,3]    OBJ       696.892878    CON18     1.000000    
    z[3,1]    OBJ       977.836077    CON19     1.000000    
    z[3,2]    OBJ       726.154639    CON20     1.000000    
    z[3,3]    OBJ       830.573220    CON21     1.000000    
    MARKER    'MARKER'                 'INTEND'
RHS
    RHS       CON1      -0.000000     CON2      -0.000000   
    RHS       CON3      -0.000000     CON4      -0.000000   
    RHS       CON5      -0.000000     CON6      -0.000000   
    RHS       CON7      -0.000000     CON8      -0.000000   
    RHS       CON9      -0.000000     CON10     -0.000000   
    RHS       CON11     -0.000000     CON12     -0.000000   
    RHS       CON13     1.000000      CON14     1.000000    
    RHS       CON15     1.000000      CON16     1.000000    
    RHS       CON17     1.000000      CON18     1.000000    
    RHS       CON19     1.000000      CON20     1.000000    
    RHS       CON21     1.000000    
BOUNDS
 BV BOUND     u[1,1]  
 BV BOUND     u[1,2]  
 BV BOUND     u[1,3]  
 BV BOUND     u[2,1]  
 BV BOUND     u[2,2]  
 BV BOUND     u[2,3]  
 BV BOUND     y[1,1,1]
 BV BOUND     y[1,1,2]
 BV BOUND     y[1,1,3]
 BV BOUND     y[1,2,1]
 BV BOUND     y[1,2,2]
 BV BOUND     y[1,2,3]
 BV BOUND     y[1,3,1]
 BV BOUND     y[1,3,2]
 BV BOUND     y[1,3,3]
 BV BOUND     y[2,1,1]
 BV BOUND     y[2,1,2]
 BV BOUND     y[2,1,3]
 BV BOUND     y[2,2,1]
 BV BOUND     y[2,2,2]
 BV BOUND     y[2,2,3]
 BV BOUND     y[2,3,1]
 BV BOUND     y[2,3,2]
 BV BOUND     y[2,3,3]
 BV BOUND     z[1,1]  
 BV BOUND     z[1,2]  
 BV BOUND     z[1,3]  
 BV BOUND     z[2,1]  
 BV BOUND     z[2,2]  
 BV BOUND     z[2,3]  
 BV BOUND     z[3,1]  
 BV BOUND     z[3,2]  
 BV BOUND     z[3,3]  
ENDATA
